Gurobi Optimizer version 9.1.2 build v9.1.2rc0 (linux64)
Thread count: 36 physical cores, 72 logical processors, using up to 32 threads
Optimize a model with 12 rows, 57 columns and 590 nonzeros
Model fingerprint: 0xf32eec78
Model has 47 quadratic constraints
Coefficient statistics:
  Matrix range     [2e-05, 3e+00]
  QMatrix range    [1e+00, 1e+00]
  QLMatrix range   [1e+00, 1e+00]
  Objective range  [8e-03, 7e-01]
  Bounds range     [1e+00, 1e+00]
  RHS range        [1e+00, 1e+00]
Presolve removed 9 rows and 0 columns

Continuous model is non-convex -- solving as a MIP.

Presolve removed 9 rows and 0 columns
Presolve time: 0.00s
Presolved: 189 rows, 57 columns, 443 nonzeros
Presolved model has 47 bilinear constraint(s)
Variable types: 57 continuous, 0 integer (0 binary)

Root relaxation: objective -1.743721e+00, 44 iterations, 0.00 seconds

    Nodes    |    Current Node    |     Objective Bounds      |     Work
 Expl Unexpl |  Obj  Depth IntInf | Incumbent    BestBd   Gap | It/Node Time

     0     0   -1.74372    0   38          -   -1.74372      -     -    0s
H    0     0                       0.6147548   -1.74372   384%     -    0s
     0     0   -1.64739    0    1    0.61475   -1.64739   368%     -    0s
H    0     0                      -1.6450460   -1.64739  0.14%     -    0s
     0     0     cutoff    0        -1.64505   -1.64505  0.00%     -    0s

Cutting planes:
  RLT: 25
  BQP: 3

Explored 1 nodes (76 simplex iterations) in 0.01 seconds
Thread count was 32 (of 72 available processors)

Solution count 2: -1.64505 0.614755 
No other solutions better than -1.64505

Optimal solution found (tolerance 1.00e-04)
Best objective -1.645045978473e+00, best bound -1.645045978473e+00, gap 0.0000%

User-callback calls 78, time in user-callback 0.00 sec
Gurobi Optimizer version 9.1.2 build v9.1.2rc0 (linux64)
Thread count: 36 physical cores, 72 logical processors, using up to 32 threads
Optimize a model with 60 rows, 300 columns and 15500 nonzeros
Model fingerprint: 0xff3d4a71
Model has 250 quadratic constraints
Coefficient statistics:
  Matrix range     [1e-06, 4e+00]
  QMatrix range    [1e+00, 1e+00]
  QLMatrix range   [1e+00, 1e+00]
  Objective range  [4e-04, 2e+00]
  Bounds range     [1e+00, 1e+00]
  RHS range        [1e+00, 1e+00]
Presolve removed 10 rows and 0 columns

Continuous model is non-convex -- solving as a MIP.

Presolve removed 10 rows and 0 columns
Presolve time: 0.01s
Presolved: 1050 rows, 300 columns, 14461 nonzeros
Presolved model has 250 bilinear constraint(s)
Variable types: 300 continuous, 0 integer (0 binary)

Root relaxation: objective -4.029536e+01, 328 iterations, 0.02 seconds

    Nodes    |    Current Node    |     Objective Bounds      |     Work
 Expl Unexpl |  Obj  Depth IntInf | Incumbent    BestBd   Gap | It/Node Time

     0     0  -40.29536    0  199          -  -40.29536      -     -    0s
     0     0  -36.50233    0  200          -  -36.50233      -     -    0s
     0     0  -35.69680    0  158          -  -35.69680      -     -    0s
     0     0  -35.69585    0  152          -  -35.69585      -     -    0s
     0     0  -35.68940    0  149          -  -35.68940      -     -    0s
     0     0  -35.68697    0  142          -  -35.68697      -     -    0s
     0     0  -35.68697    0  142          -  -35.68697      -     -    0s
H    0     0                     -28.4762780  -35.68697  25.3%     -    0s
     0     2  -35.68697    0  142  -28.47628  -35.68697  25.3%     -    0s
* 1610  1436              52     -28.4772477  -33.69248  18.3%  57.8    1s
* 1771  1564              95     -28.6903143  -33.69248  17.4%  55.5    1s
* 1938  1699              41     -31.5601107  -33.69248  6.76%  53.1    1s
* 2802  1780              72     -31.7708581  -32.98703  3.83%  51.9    2s
* 2872  1780              90     -31.8307790  -32.98703  3.63%  51.5    2s
* 2875  1780              91     -31.8307882  -32.98703  3.63%  51.5    2s
* 6103   359              59     -31.8335955  -32.98703  3.62%  62.6    4s
* 6111   359              66     -31.8336244  -32.98703  3.62%  62.6    4s
* 6609   571              64     -31.8338657  -32.98703  3.62%  60.8    4s
* 6613   571              66     -31.8338951  -32.98703  3.62%  60.8    4s
* 6786   571              69     -31.8341241  -32.98703  3.62%  60.1    4s
* 6809   571              71     -31.8511173  -32.98703  3.57%  60.0    4s
* 6811   571              72     -31.8511315  -32.98703  3.57%  60.0    4s
* 6812   571              72     -31.8511322  -32.98703  3.57%  60.0    4s
  6840   680     cutoff   28       -31.85113  -32.98703  3.57%  59.9    5s
* 6863   680              67     -31.8771544  -32.98703  3.48%  59.8    5s
* 6865   680              68     -31.8771734  -32.98703  3.48%  59.8    5s
* 7263   792              70     -31.9146050  -32.98703  3.36%  58.3    5s
* 8228   875              60     -31.9150905  -32.90105  3.09%  55.7    5s
* 8229   875              60     -31.9151139  -32.90105  3.09%  55.7    5s
* 8236   875              63     -31.9151337  -32.90105  3.09%  55.7    5s
* 8237   875              63     -31.9151361  -32.90105  3.09%  55.7    5s
* 8570   886              62     -31.9151395  -32.90105  3.09%  54.8    5s
* 8571   886              61     -31.9151434  -32.90105  3.09%  54.8    5s
* 8698   886              64     -31.9151766  -32.90105  3.09%  54.4    5s
* 9324  1050              54     -31.9152038  -32.66486  2.35%  52.9    5s
* 9327  1050              56     -31.9152230  -32.66486  2.35%  52.9    5s
* 9328  1050              56     -31.9152234  -32.66486  2.35%  52.9    5s
* 9685  1156             106     -31.9152248  -32.48131  1.77%  51.9    5s
* 9688  1156             105     -31.9152272  -32.48131  1.77%  51.9    5s
* 9693  1156             104     -31.9152303  -32.48131  1.77%  51.9    5s
* 9976  1156              67     -31.9211389  -32.48131  1.75%  51.0    5s
* 9979  1156              67     -31.9211404  -32.48131  1.75%  51.0    5s
* 9982  1156              66     -31.9211428  -32.48131  1.75%  51.0    5s
*10029  1250              60     -31.9212791  -32.48131  1.75%  51.0    5s
*10030  1250              60     -31.9212807  -32.48131  1.75%  51.0    5s
*10067  1250              54     -31.9287006  -32.48131  1.73%  50.9    5s
*10070  1250              56     -31.9287449  -32.48131  1.73%  50.9    5s
*10074  1250              58     -31.9287458  -32.48131  1.73%  50.9    5s
*11251  1642              78     -31.9357153  -32.45473  1.63%  47.7    6s
*11253  1642              77     -31.9357162  -32.45473  1.63%  47.7    6s
*11254  1642              76     -31.9357176  -32.45473  1.63%  47.7    6s
*11630  2009              71     -31.9373504  -32.45473  1.62%  46.6    6s
*11633  2009              73     -31.9374893  -32.45473  1.62%  46.6    6s
*11634  2009              73     -31.9374899  -32.45473  1.62%  46.6    6s
*11729  2009             100     -31.9490937  -32.45473  1.58%  46.4    6s
*12467  2113             102     -31.9490993  -32.31699  1.15%  44.4    6s
*12489  2113              66     -31.9559183  -32.31699  1.13%  44.3    6s
*13204  2006              93     -31.9604063  -32.27391  0.98%  42.6    6s
*13207  2006              93     -31.9604071  -32.27391  0.98%  42.6    6s
*13363  2006             102     -31.9633770  -32.27391  0.97%  42.3    6s
*13365  2006             101     -31.9633788  -32.27391  0.97%  42.3    6s
*13366  2006             100     -31.9633812  -32.27391  0.97%  42.3    6s
*13367  2006              99     -31.9633845  -32.27391  0.97%  42.3    6s
*13598  2006              94     -31.9663762  -32.27391  0.96%  41.8    6s
*13600  2006              95     -31.9663866  -32.27391  0.96%  41.8    6s
*13606  2006              97     -31.9664292  -32.27391  0.96%  41.8    6s
*13607  2006              97     -31.9664294  -32.27391  0.96%  41.8    6s
*13747  2006              65     -31.9746506  -32.27391  0.94%  41.5    6s
*14171  1965              61     -31.9746838  -32.20560  0.72%  40.8    6s
*14173  1965              62     -31.9748158  -32.20560  0.72%  40.8    6s
*14178  1965              65     -31.9748175  -32.20560  0.72%  40.8    6s
*14179  1965              64     -31.9748276  -32.20560  0.72%  40.8    6s
*14341  1965              69     -31.9750711  -32.20560  0.72%  40.5    6s
*14342  1965              69     -31.9751759  -32.20560  0.72%  40.5    6s
*14719  2218              68     -31.9753816  -32.16667  0.60%  39.8    6s
*14757  2218              77     -31.9755052  -32.16667  0.60%  39.7    6s
*14758  2218              77     -31.9755309  -32.16667  0.60%  39.7    6s
*14827  2218              62     -31.9810925  -32.16667  0.58%  39.5    6s
*15121  2218              77     -32.0043566  -32.16667  0.51%  38.9    6s
*15618  2150              61     -32.0045458  -32.09345  0.28%  38.1    6s
*15620  2150              62     -32.0045744  -32.09345  0.28%  38.1    6s
*15621  2150              62     -32.0045744  -32.09345  0.28%  38.1    6s
*15626  2150              64     -32.0046070  -32.09345  0.28%  38.0    6s
*15627  2150              64     -32.0046070  -32.09345  0.28%  38.0    6s
*15956  2150              80     -32.0068767  -32.09345  0.27%  37.5    6s
*15961  2150              81     -32.0069068  -32.09345  0.27%  37.5    6s
*15962  2150              81     -32.0069076  -32.09345  0.27%  37.5    6s
*15963  2150              80     -32.0069087  -32.09345  0.27%  37.4    6s
*16172  2150              74     -32.0111487  -32.09345  0.26%  37.1    6s
*16177  2150              78     -32.0111494  -32.09345  0.26%  37.0    6s
*16283  2255              69     -32.0113262  -32.09345  0.26%  36.9    6s
*16284  2255              69     -32.0113389  -32.09345  0.26%  36.9    6s
*16339  2255              72     -32.0137399  -32.09345  0.25%  36.8    6s
*16340  2255              72     -32.0137611  -32.09345  0.25%  36.8    6s
*16342  2255              72     -32.0139209  -32.09345  0.25%  36.8    6s
*16343  2255              72     -32.0140049  -32.09345  0.25%  36.8    6s
*16461  2255              81     -32.0154389  -32.09345  0.24%  36.6    6s
*16462  2255              81     -32.0154433  -32.09345  0.24%  36.6    6s
*16543  2255              80     -32.0191401  -32.09345  0.23%  36.5    6s
*16754  2255              69     -32.0470336  -32.09345  0.14%  36.1    6s
*17654  1799              63     -32.0483974  -32.07708  0.09%  34.7    7s
*17873  1799              74     -32.0485565  -32.07708  0.09%  34.4    7s
*18300  2222              67     -32.0489027  -32.06503  0.05%  33.8    7s
*18663  2222              69     -32.0528674  -32.06437  0.04%  33.3    7s
*18956  2222              65     -32.0529176  -32.06437  0.04%  32.9    7s
*19401  2249              74     -32.0550591  -32.06124  0.02%  32.3    7s
*19588  2249              68     -32.0574453  -32.06124  0.01%  32.1    7s
*19613  2249              63     -32.0575084  -32.06124  0.01%  32.0    7s
*20028  2249              64     -32.0575117  -32.06124  0.01%  31.5    7s

Explored 22122 nodes (633752 simplex iterations) in 7.59 seconds
Thread count was 32 (of 72 available processors)

Solution count 10: -32.0575 -32.0575 -32.0574 ... -32.047

Optimal solution found (tolerance 1.00e-04)
Best objective -3.205751168097e+01, best bound -3.205789882915e+01, gap 0.0012%

User-callback calls 45281, time in user-callback 0.01 sec



objective value: -32.057511680971146
objective bound: -32.05789882915309
x_opt: [0.0, 1.0, 1.0, 0.0, 0.0, 0.0, 1.0, 1.0, 0.0, 0.0, 0.12942365557763041, 0.3191390534215312, 0.0, 1.0, 1.0, 1.0, 0.0, 1.0, 0.0, 0.0, 0.0, 1.0, 1.0, 1.0, 0.0, 1.0, 1.0, 1.0, 0.0, 0.7601513606871226, 0.8774694420905224, 0.697717792713896, 0.0, 0.30090815306552343, 1.0, 1.0, 0.9999682936184626, 1.0, 0.640557889731853, 1.0, 0.9732690027782648, 0.45810040668136737, 1.0, 0.0, 0.0, 0.7772166111932443, 0.0, 0.0, 0.0, 1.0]
GUROBI solution time: 7.589293003082275

